(declare-fun var0 () String)
(assert (RegexIn var0 (RegexConcat (RegexUnion (RegexPlus (Str2Reg "fff")) (RegexPlus (Str2Reg "ggg"))) (RegexConcat (RegexPlus (RegexUnion (Str2Reg "d") (Str2Reg "e"))) (RegexConcat (RegexPlus (RegexUnion (Str2Reg "bb") (Str2Reg "ccc"))) (RegexConcat (RegexPlus (RegexUnion (Str2Reg "9") (Str2Reg "aaa"))) (RegexConcat (RegexPlus (RegexPlus (Str2Reg "88"))) (RegexConcat (RegexUnion (RegexStar (Str2Reg "66")) (RegexPlus (Str2Reg "7"))) (RegexConcat (RegexPlus (RegexPlus (Str2Reg "5"))) (RegexConcat (RegexStar (RegexPlus (Str2Reg "444"))) (RegexConcat (RegexStar (RegexUnion (Str2Reg "22") (Str2Reg "3"))) (RegexStar (RegexUnion (Str2Reg "0") (Str2Reg "1"))))))))))))))
(assert (RegexIn var0 (RegexConcat (RegexStar (RegexUnion (Str2Reg "gg") (Str2Reg "hh"))) (RegexConcat (RegexStar (RegexStar (Str2Reg "f"))) (RegexConcat (RegexStar (RegexStar (Str2Reg "e"))) (RegexConcat (RegexUnion (RegexStar (Str2Reg "bbb")) (RegexUnion (Str2Reg "c") (Str2Reg "ddd"))) (RegexConcat (RegexUnion (RegexUnion (Str2Reg "88") (Str2Reg "9")) (RegexPlus (Str2Reg "a"))) (RegexConcat (RegexPlus (RegexPlus (Str2Reg "777"))) (RegexConcat (RegexUnion (RegexStar (Str2Reg "5")) (RegexStar (Str2Reg "666"))) (RegexConcat (RegexStar (RegexUnion (Str2Reg "33") (Str2Reg "4"))) (RegexConcat (RegexPlus (RegexPlus (Str2Reg "222"))) (RegexPlus (RegexUnion (Str2Reg "000") (Str2Reg "111"))))))))))))))
(assert (RegexIn var0 (RegexConcat (RegexUnion (RegexStar (Str2Reg "c")) (RegexStar (Str2Reg "d"))) (RegexConcat (RegexStar (RegexPlus (Str2Reg "bbb"))) (RegexConcat (RegexStar (RegexPlus (Str2Reg "a"))) (RegexConcat (RegexPlus (RegexUnion (Str2Reg "88") (Str2Reg "9"))) (RegexConcat (RegexStar (RegexPlus (Str2Reg "777"))) (RegexConcat (RegexStar (RegexUnion (Str2Reg "5") (Str2Reg "6"))) (RegexConcat (RegexStar (RegexStar (Str2Reg "44"))) (RegexConcat (RegexStar (RegexUnion (Str2Reg "22") (Str2Reg "333"))) (RegexConcat (RegexStar (RegexStar (Str2Reg "1"))) (RegexPlus (RegexStar (Str2Reg "000"))))))))))))))
(assert (RegexIn var0 (RegexConcat (RegexPlus (RegexStar (Str2Reg "dd"))) (RegexConcat (RegexUnion (RegexUnion (Str2Reg "aa") (Str2Reg "bbb")) (RegexStar (Str2Reg "cc"))) (RegexConcat (RegexPlus (RegexStar (Str2Reg "99"))) (RegexConcat (RegexPlus (RegexPlus (Str2Reg "8"))) (RegexConcat (RegexPlus (RegexStar (Str2Reg "777"))) (RegexConcat (RegexPlus (RegexPlus (Str2Reg "6"))) (RegexConcat (RegexStar (RegexPlus (Str2Reg "5"))) (RegexConcat (RegexPlus (RegexPlus (Str2Reg "4"))) (RegexConcat (RegexStar (RegexUnion (Str2Reg "222") (Str2Reg "3"))) (RegexUnion (RegexStar (Str2Reg "0")) (RegexPlus (Str2Reg "1"))))))))))))))
(assert (RegexIn var0 (RegexConcat (RegexUnion (RegexPlus (Str2Reg "e")) (RegexStar (Str2Reg "ff"))) (RegexConcat (RegexPlus (RegexUnion (Str2Reg "ccc") (Str2Reg "d"))) (RegexConcat (RegexPlus (RegexUnion (Str2Reg "aaa") (Str2Reg "b"))) (RegexConcat (RegexUnion (RegexPlus (Str2Reg "88")) (RegexPlus (Str2Reg "99"))) (RegexConcat (RegexStar (RegexPlus (Str2Reg "7"))) (RegexConcat (RegexPlus (RegexUnion (Str2Reg "555") (Str2Reg "666"))) (RegexConcat (RegexUnion (RegexPlus (Str2Reg "3")) (RegexStar (Str2Reg "4"))) (RegexConcat (RegexStar (RegexStar (Str2Reg "2"))) (RegexConcat (RegexStar (RegexPlus (Str2Reg "111"))) (RegexStar (RegexStar (Str2Reg "000"))))))))))))))
(assert (RegexIn var0 (RegexConcat (RegexStar (RegexPlus (Str2Reg "g"))) (RegexConcat (RegexStar (RegexUnion (Str2Reg "ee") (Str2Reg "fff"))) (RegexConcat (RegexStar (RegexStar (Str2Reg "d"))) (RegexConcat (RegexStar (RegexStar (Str2Reg "ccc"))) (RegexConcat (RegexPlus (RegexPlus (Str2Reg "b"))) (RegexConcat (RegexUnion (RegexPlus (Str2Reg "99")) (RegexPlus (Str2Reg "aa"))) (RegexConcat (RegexUnion (RegexUnion (Str2Reg "6") (Str2Reg "7")) (RegexPlus (Str2Reg "88"))) (RegexConcat (RegexStar (RegexUnion (Str2Reg "44") (Str2Reg "5"))) (RegexConcat (RegexPlus (RegexUnion (Str2Reg "222") (Str2Reg "3"))) (RegexUnion (RegexPlus (Str2Reg "0")) (RegexPlus (Str2Reg "111"))))))))))))))
(assert (RegexIn var0 (RegexConcat (RegexStar (RegexUnion (Str2Reg "eee") (Str2Reg "fff"))) (RegexConcat (RegexPlus (RegexUnion (Str2Reg "cc") (Str2Reg "dd"))) (RegexConcat (RegexUnion (RegexPlus (Str2Reg "aaa")) (RegexStar (Str2Reg "b"))) (RegexConcat (RegexStar (RegexPlus (Str2Reg "99"))) (RegexConcat (RegexUnion (RegexUnion (Str2Reg "666") (Str2Reg "777")) (RegexPlus (Str2Reg "88"))) (RegexConcat (RegexStar (RegexStar (Str2Reg "555"))) (RegexConcat (RegexStar (RegexPlus (Str2Reg "444"))) (RegexConcat (RegexPlus (RegexPlus (Str2Reg "33"))) (RegexConcat (RegexStar (RegexPlus (Str2Reg "22"))) (RegexStar (RegexUnion (Str2Reg "0") (Str2Reg "1"))))))))))))))
(assert (RegexIn var0 (RegexConcat (RegexUnion (RegexPlus (Str2Reg "ii")) (RegexPlus (Str2Reg "jj"))) (RegexConcat (RegexUnion (RegexUnion (Str2Reg "ee") (Str2Reg "f")) (RegexUnion (Str2Reg "gg") (Str2Reg "hhh"))) (RegexConcat (RegexStar (RegexStar (Str2Reg "dd"))) (RegexConcat (RegexUnion (RegexPlus (Str2Reg "bbb")) (RegexPlus (Str2Reg "c"))) (RegexConcat (RegexStar (RegexStar (Str2Reg "a"))) (RegexConcat (RegexStar (RegexPlus (Str2Reg "9"))) (RegexConcat (RegexPlus (RegexPlus (Str2Reg "8"))) (RegexConcat (RegexStar (RegexUnion (Str2Reg "6") (Str2Reg "7"))) (RegexConcat (RegexUnion (RegexUnion (Str2Reg "22") (Str2Reg "33")) (RegexUnion (Str2Reg "44") (Str2Reg "555"))) (RegexPlus (RegexUnion (Str2Reg "0") (Str2Reg "1"))))))))))))))
(assert (RegexIn var0 (RegexConcat (RegexPlus (RegexPlus (Str2Reg "g"))) (RegexConcat (RegexPlus (RegexUnion (Str2Reg "e") (Str2Reg "ff"))) (RegexConcat (RegexPlus (RegexStar (Str2Reg "dd"))) (RegexConcat (RegexPlus (RegexPlus (Str2Reg "ccc"))) (RegexConcat (RegexPlus (RegexUnion (Str2Reg "aaa") (Str2Reg "bbb"))) (RegexConcat (RegexPlus (RegexUnion (Str2Reg "8") (Str2Reg "999"))) (RegexConcat (RegexStar (RegexPlus (Str2Reg "7"))) (RegexConcat (RegexUnion (RegexStar (Str2Reg "5")) (RegexStar (Str2Reg "6"))) (RegexConcat (RegexUnion (RegexUnion (Str2Reg "11") (Str2Reg "222")) (RegexUnion (Str2Reg "333") (Str2Reg "444"))) (RegexPlus (RegexStar (Str2Reg "0"))))))))))))))
(assert (RegexIn var0 (RegexConcat (RegexStar (RegexStar (Str2Reg "hhh"))) (RegexConcat (RegexPlus (RegexUnion (Str2Reg "fff") (Str2Reg "gg"))) (RegexConcat (RegexPlus (RegexUnion (Str2Reg "dd") (Str2Reg "eee"))) (RegexConcat (RegexStar (RegexUnion (Str2Reg "bbb") (Str2Reg "cc"))) (RegexConcat (RegexPlus (RegexStar (Str2Reg "aaa"))) (RegexConcat (RegexUnion (RegexPlus (Str2Reg "88")) (RegexPlus (Str2Reg "999"))) (RegexConcat (RegexPlus (RegexUnion (Str2Reg "666") (Str2Reg "7"))) (RegexConcat (RegexUnion (RegexStar (Str2Reg "444")) (RegexPlus (Str2Reg "555"))) (RegexConcat (RegexStar (RegexUnion (Str2Reg "2") (Str2Reg "333"))) (RegexUnion (RegexStar (Str2Reg "0")) (RegexStar (Str2Reg "1"))))))))))))))
(assert (RegexIn var0 (RegexConcat (RegexPlus (RegexUnion (Str2Reg "hhh") (Str2Reg "iii"))) (RegexConcat (RegexUnion (RegexUnion (Str2Reg "d") (Str2Reg "eee")) (RegexUnion (Str2Reg "fff") (Str2Reg "g"))) (RegexConcat (RegexUnion (RegexStar (Str2Reg "bbb")) (RegexPlus (Str2Reg "cc"))) (RegexConcat (RegexUnion (RegexStar (Str2Reg "999")) (RegexPlus (Str2Reg "a"))) (RegexConcat (RegexPlus (RegexStar (Str2Reg "888"))) (RegexConcat (RegexUnion (RegexStar (Str2Reg "666")) (RegexPlus (Str2Reg "77"))) (RegexConcat (RegexStar (RegexPlus (Str2Reg "5"))) (RegexConcat (RegexUnion (RegexUnion (Str2Reg "222") (Str2Reg "33")) (RegexPlus (Str2Reg "4"))) (RegexConcat (RegexPlus (RegexStar (Str2Reg "111"))) (RegexPlus (RegexPlus (Str2Reg "000"))))))))))))))
(assert (RegexIn var0 (RegexConcat (RegexStar (RegexUnion (Str2Reg "g") (Str2Reg "h"))) (RegexConcat (RegexUnion (RegexStar (Str2Reg "dd")) (RegexUnion (Str2Reg "ee") (Str2Reg "f"))) (RegexConcat (RegexStar (RegexPlus (Str2Reg "cc"))) (RegexConcat (RegexStar (RegexStar (Str2Reg "b"))) (RegexConcat (RegexStar (RegexUnion (Str2Reg "999") (Str2Reg "aaa"))) (RegexConcat (RegexPlus (RegexPlus (Str2Reg "888"))) (RegexConcat (RegexPlus (RegexStar (Str2Reg "777"))) (RegexConcat (RegexUnion (RegexUnion (Str2Reg "4") (Str2Reg "55")) (RegexPlus (Str2Reg "666"))) (RegexConcat (RegexStar (RegexUnion (Str2Reg "2") (Str2Reg "33"))) (RegexPlus (RegexUnion (Str2Reg "000") (Str2Reg "11"))))))))))))))
(assert (RegexIn var0 (RegexConcat (RegexPlus (RegexStar (Str2Reg "jjj"))) (RegexConcat (RegexStar (RegexUnion (Str2Reg "hh") (Str2Reg "iii"))) (RegexConcat (RegexPlus (RegexUnion (Str2Reg "fff") (Str2Reg "ggg"))) (RegexConcat (RegexStar (RegexStar (Str2Reg "ee"))) (RegexConcat (RegexUnion (RegexUnion (Str2Reg "b") (Str2Reg "c")) (RegexPlus (Str2Reg "d"))) (RegexConcat (RegexStar (RegexUnion (Str2Reg "999") (Str2Reg "a"))) (RegexConcat (RegexStar (RegexStar (Str2Reg "8"))) (RegexConcat (RegexUnion (RegexStar (Str2Reg "666")) (RegexPlus (Str2Reg "7"))) (RegexConcat (RegexUnion (RegexStar (Str2Reg "33")) (RegexUnion (Str2Reg "444") (Str2Reg "555"))) (RegexUnion (RegexUnion (Str2Reg "00") (Str2Reg "1")) (RegexStar (Str2Reg "222"))))))))))))))
(assert (RegexIn var0 (RegexConcat (RegexStar (RegexPlus (Str2Reg "f"))) (RegexConcat (RegexStar (RegexStar (Str2Reg "e"))) (RegexConcat (RegexStar (RegexStar (Str2Reg "dd"))) (RegexConcat (RegexUnion (RegexPlus (Str2Reg "bbb")) (RegexPlus (Str2Reg "c"))) (RegexConcat (RegexStar (RegexStar (Str2Reg "aaa"))) (RegexConcat (RegexUnion (RegexUnion (Str2Reg "777") (Str2Reg "88")) (RegexStar (Str2Reg "99"))) (RegexConcat (RegexPlus (RegexStar (Str2Reg "6"))) (RegexConcat (RegexUnion (RegexPlus (Str2Reg "3")) (RegexUnion (Str2Reg "444") (Str2Reg "5"))) (RegexConcat (RegexStar (RegexPlus (Str2Reg "22"))) (RegexUnion (RegexPlus (Str2Reg "00")) (RegexStar (Str2Reg "111"))))))))))))))
(assert (RegexIn var0 (RegexConcat (RegexUnion (RegexPlus (Str2Reg "dd")) (RegexPlus (Str2Reg "ee"))) (RegexConcat (RegexStar (RegexPlus (Str2Reg "ccc"))) (RegexConcat (RegexPlus (RegexStar (Str2Reg "b"))) (RegexConcat (RegexPlus (RegexStar (Str2Reg "aaa"))) (RegexConcat (RegexUnion (RegexUnion (Str2Reg "66") (Str2Reg "77")) (RegexUnion (Str2Reg "88") (Str2Reg "9"))) (RegexConcat (RegexStar (RegexPlus (Str2Reg "5"))) (RegexConcat (RegexPlus (RegexStar (Str2Reg "4"))) (RegexConcat (RegexPlus (RegexStar (Str2Reg "333"))) (RegexConcat (RegexPlus (RegexUnion (Str2Reg "111") (Str2Reg "2"))) (RegexStar (RegexPlus (Str2Reg "00"))))))))))))))
(check-sat)